(set-logic QF_S)
(declare-fun var0 () String)
(assert (str.in.re var0 (re.++ (re.union (re.+ (str.to.re "000")) (re.+ (str.to.re "11"))) (re.++ (re.* (re.union (str.to.re "2") (str.to.re "33"))) (re.++ (re.union (re.+ (str.to.re "44")) (re.+ (str.to.re "5"))) (re.++ (re.* (re.+ (str.to.re "6"))) (re.++ (re.* (re.* (str.to.re "77"))) (re.++ (re.* (re.* (str.to.re "888"))) (re.++ (re.union (re.* (str.to.re "9")) (re.* (str.to.re "aaa"))) (re.++ (re.+ (re.+ (str.to.re "bb"))) (re.++ (re.union (re.+ (str.to.re "ccc")) (re.+ (str.to.re "ddd"))) (re.union (re.* (str.to.re "e")) (re.* (str.to.re "fff"))))))))))))))
(assert (<= 351 (str.len var0)))
(check-sat)